# Solution for model GasLib-40
# Objective value = 1.0618374131903410e+01
loadshed[innode_1] 0
loadshed[innode_2] 0
loadshed[innode_3] 0
loadshed[innode_4] 0
loadshed[innode_5] 0
loadshed[innode_6] 0
loadshed[innode_7] 0
loadshed[innode_8] 0
loadshed[source_1] -3.3560545473988035e-01
loadshed[source_2] 2.9291979790685874e-02
loadshed[source_3] 0.373479997022068
loadshed[sink_1] 0
loadshed[sink_2] 0
loadshed[sink_3] 0
loadshed[sink_4] 0
loadshed[sink_5] 0
loadshed[sink_6] 0
loadshed[sink_7] 0
loadshed[sink_8] 0
loadshed[sink_9] 0
loadshed[sink_10] 0
loadshed[sink_11] 0
loadshed[sink_12] 6.4927638003995369e-01
loadshed[sink_13] 0
loadshed[sink_14] 0
loadshed[sink_15] 0
loadshed[sink_16] 0
loadshed[sink_17] 0
loadshed[sink_18] 0
loadshed[sink_19] 0
loadshed[sink_20] 0
loadshed[sink_21] 0
loadshed[sink_22] 0
loadshed[sink_23] 0
loadshed[sink_24] 0
loadshed[sink_25] 0
loadshed[sink_26] 0
loadshed[sink_27] 0
loadshed[sink_28] 0
loadshed[sink_29] 0
flow[source_1,sink_3] 2.1114623734134290e+02
flow[innode_1,sink_16] 1.6354166666666970e+01
flow[innode_6,sink_13] 1.5432445362564444e+01
flow[sink_13,sink_14] -9.2172130410222408e-01
flow[sink_14,sink_10] -1.7275887970768892e+01
flow[sink_25,sink_26] 1.7150746323958344e+02
flow[sink_26,sink_9] 1.2176692936904891e+02
flow[sink_9,sink_18] 1.0541276270238224e+02
flow[sink_26,sink_4] 3.3386367203867884e+01
flow[sink_4,sink_20] -1.7181188557883228e+01
flow[sink_18,sink_6] 8.9058596035715567e+01
flow[sink_25,innode_8] -1.7843790400800651e+02
flow[sink_6,sink_7] 39.9960960357148
flow[sink_6,sink_22] 3.2708333333333641e+01
flow[sink_7,sink_24] 3.8444125868096592e+01
flow[sink_22,sink_1] 1.6354166666666970e+01
flow[sink_24,sink_21] 2.2089959201429924e+01
flow[sink_21,sink_12] 5.7357925347632568e+00
flow[sink_7,sink_5] -1.4802196499048179e+01
flow[sink_5,sink_17] -3.1156363165714993e+01
flow[sink_17,sink_4] -3.4213389095084445e+01
flow[sink_17,sink_8] -1.3297140737297047e+01
flow[sink_3,sink_23] 16.3541666666697
flow[sink_8,sink_20] -2.9651307403963713e+01
flow[sink_25,sink_20] 6.3186662628513545e+01
flow[sink_25,sink_15] -8.8042833889322381e+01
flow[sink_15,sink_29] -1.0439700055598905e+02
flow[sink_29,sink_28] 1.6354166666667879e+01
flow[sink_29,sink_2] 1.6354166666684250e+01
flow[sink_2,sink_15] 0
flow[sink_29,innode_7] -1.5345950055600719e+02
flow[innode_4,sink_19] 8.2692554637435720e+01
flow[sink_19,innode_3] 0
flow[innode_4,innode_5] 1.6354166666679703e+01
flow[sink_27,innode_5] -1.6354166666679703e+01
flow[sink_27,sink_19] 0
flow[sink_10,sink_11] 3.2708333333333641e+01
flow[sink_10,innode_2] -6.6338387970768963e+01
flow[sink_10,innode_3] 0
flow[innode_6,sink_25] -1.5432445362564444e+01
flow[sink_11,innode_1] 1.6354166666666970e+01
flow[sink_19,innode_2] 6.6338387970768963e+01
flow[source_3,innode_4] 9.9046721304115422e+01
flow[source_2,innode_7] 1.5345950055600719e+02
flow[sink_3,innode_8] 1.7843790400800651e+02
pressure[innode_1] 7.4005204811432975e+01
pressure[innode_2] 7.7663163909807366e+01
pressure[innode_3] 7.4156906119036520e+01
pressure[innode_4] 81.01325
pressure[innode_5] 8.1002000741808772e+01
pressure[innode_6] 7.3423207869383745e+01
pressure[innode_7] 81.01325
pressure[innode_8] 8.0307468789354189e+01
pressure[source_1] 81.01325
pressure[source_2] 81.01325
pressure[source_3] 81.01325
pressure[sink_1] 4.5762617734169496e+01
pressure[sink_2] 7.6494540038565887e+01
pressure[sink_3] 8.0307468789354189e+01
pressure[sink_4] 5.7099208820092009e+01
pressure[sink_5] 5.3470762052856720e+01
pressure[sink_6] 4.7863695344556866e+01
pressure[sink_7] 4.7314644282250185e+01
pressure[sink_8] 5.6293421569181525e+01
pressure[sink_9] 5.4055972959636271e+01
pressure[sink_10] 7.4156906119036520e+01
pressure[sink_11] 7.4005204811432975e+01
pressure[sink_12] 1.0132500000000002e+00
pressure[sink_13] 7.3338131377101135e+01
pressure[sink_14] 7.3339780875888124e+01
pressure[sink_15] 7.3850301404606668e+01
pressure[sink_16] 72.9835549766153
pressure[sink_17] 5.5791685904041145e+01
pressure[sink_18] 5.0241825020997624e+01
pressure[sink_19] 7.7663163909807366e+01
pressure[sink_20] 5.8359700700865034e+01
pressure[sink_21] 3.0543589050169855e+00
pressure[sink_22] 46.8263868765245
pressure[sink_23] 80.1427507776944
pressure[sink_24] 3.2989846791529813e+00
pressure[sink_25] 7.3423207869383745e+01
pressure[sink_26] 6.1344037954167483e+01
pressure[sink_27] 8.0866291377726043e+01
pressure[sink_28] 7.6613527263412365e+01
pressure[sink_29] 7.6908809537029541e+01
interdiction[source_1,sink_3] 0
interdiction[innode_1,sink_16] 0
interdiction[innode_6,sink_13] 0
interdiction[sink_13,sink_14] 0
interdiction[sink_14,sink_10] 0
interdiction[sink_25,sink_26] 0
interdiction[sink_26,sink_9] 0
interdiction[sink_9,sink_18] 0
interdiction[sink_26,sink_4] 0
interdiction[sink_4,sink_20] 0
interdiction[sink_18,sink_6] 0
interdiction[sink_25,innode_8] 0
interdiction[sink_6,sink_7] 0
interdiction[sink_6,sink_22] 0
interdiction[sink_7,sink_24] 0
interdiction[sink_22,sink_1] 0
interdiction[sink_24,sink_21] 0
interdiction[sink_21,sink_12] 0
interdiction[sink_7,sink_5] 0
interdiction[sink_5,sink_17] 0
interdiction[sink_17,sink_4] 0
interdiction[sink_17,sink_8] 0
interdiction[sink_3,sink_23] 0
interdiction[sink_8,sink_20] 0
interdiction[sink_25,sink_20] 0
interdiction[sink_25,sink_15] 0
interdiction[sink_15,sink_29] 0
interdiction[sink_29,sink_28] 0
interdiction[sink_29,sink_2] 0
interdiction[sink_2,sink_15] 1
interdiction[sink_29,innode_7] 0
interdiction[innode_4,sink_19] 0
interdiction[sink_19,innode_3] 1
interdiction[innode_4,innode_5] 0
interdiction[sink_27,innode_5] 0
interdiction[sink_27,sink_19] 1
interdiction[sink_10,sink_11] 0
interdiction[sink_10,innode_2] 0
interdiction[sink_10,innode_3] 0
interdiction[innode_6,sink_25] 0
interdiction[sink_11,innode_1] 0
interdiction[sink_19,innode_2] 0
interdiction[source_3,innode_4] 0
interdiction[source_2,innode_7] 0
interdiction[sink_3,innode_8] 0
WCcheckFlow[source_1,sink_3] 39
WCcheckFlow[innode_1,sink_16] 1
WCcheckFlow[innode_6,sink_13] 13
WCcheckFlow[sink_13,sink_14] 12
WCcheckFlow[sink_14,sink_10] 11
WCcheckFlow[sink_25,sink_26] 15
WCcheckFlow[sink_26,sink_9] 12
WCcheckFlow[sink_9,sink_18] 11
WCcheckFlow[sink_26,sink_4] 2
WCcheckFlow[sink_4,sink_20] 1
WCcheckFlow[sink_18,sink_6] 10
WCcheckFlow[sink_25,innode_8] -36
WCcheckFlow[sink_6,sink_7] 7
WCcheckFlow[sink_6,sink_22] 2
WCcheckFlow[sink_7,sink_24] 3
WCcheckFlow[sink_22,sink_1] 1
WCcheckFlow[sink_24,sink_21] 2
WCcheckFlow[sink_21,sink_12] 1
WCcheckFlow[sink_7,sink_5] 3
WCcheckFlow[sink_5,sink_17] 2
WCcheckFlow[sink_17,sink_4] 0
WCcheckFlow[sink_17,sink_8] 1
WCcheckFlow[sink_3,sink_23] 1
WCcheckFlow[sink_8,sink_20] 0
WCcheckFlow[sink_25,sink_20] 0
WCcheckFlow[sink_25,sink_15] 6
WCcheckFlow[sink_15,sink_29] 5
WCcheckFlow[sink_29,sink_28] 1
WCcheckFlow[sink_29,sink_2] 1
WCcheckFlow[sink_2,sink_15] 0
WCcheckFlow[sink_29,innode_7] 2
WCcheckFlow[innode_4,sink_19] -4
WCcheckFlow[sink_19,innode_3] 0
WCcheckFlow[innode_4,innode_5] 2
WCcheckFlow[sink_27,innode_5] -1
WCcheckFlow[sink_27,sink_19] 0
WCcheckFlow[sink_10,sink_11] 3
WCcheckFlow[sink_10,innode_2] 6
WCcheckFlow[sink_10,innode_3] 1
WCcheckFlow[innode_6,sink_25] -14
WCcheckFlow[sink_11,innode_1] 2
WCcheckFlow[sink_19,innode_2] -5
WCcheckFlow[source_3,innode_4] -1
WCcheckFlow[source_2,innode_7] -1
WCcheckFlow[sink_3,innode_8] 37
